NAME 
ROWS
 N  OBJ
 L  R0      
 L  R1      
 E  R2      
 E  R3      
 E  R4      
 E  R5      
 E  R6      
 E  R7      
 E  R8      
 E  R9      
 E  R10     
 E  R11     
COLUMNS
    MARKER    'MARKER'                 'INTORG'
    I0(6)     OBJ       27
    I0(6)     R0        -37
    I0(6)     R1        -200
    I0(6)     R4        18
    I0(6)     R5        8
    I0(6)     R7        2
    I0(6)     R11       1
    I1(6)     OBJ       -60
    I1(6)     R0        181
    I1(6)     R1        42
    I1(6)     R2        19
    I1(6)     R6        15
    I1(6)     R7        6
    I1(6)     R11       1
    I2(9)     OBJ       91
    I2(9)     R0        -180
    I2(9)     R1        113
    I2(9)     R2        3
    I2(9)     R3        7
    I2(9)     R4        8
    I2(9)     R5        13
    I2(9)     R6        11
    I2(9)     R7        3
    I2(9)     R11       1
    I3(3)     OBJ       121
    I3(3)     R0        -110
    I3(3)     R1        83
    I3(3)     R11       1
    I4(6)     OBJ       -165
    I4(6)     R0        93
    I4(6)     R1        155
    I4(6)     R2        1
    I4(6)     R3        18
    I4(6)     R6        5
    I4(6)     R11       1
    I5(6)     OBJ       -47
    I5(6)     R0        -33
    I5(6)     R1        188
    I5(6)     R2        8
    I5(6)     R5        9
    I5(6)     R7        8
    I5(6)     R11       1
    MARKER    'MARKER'                 'INTEND'
    C6(6)     OBJ       -3
    C6(6)     R0        -10
    C6(6)     R1        -10
    C6(6)     R4        5
    C6(6)     R5        16
    C6(6)     R6        -1
    C6(6)     R7        6
    C7(5)     OBJ       1
    C7(5)     R0        -2
    C7(5)     R1        3
    C7(5)     R2        17
    C7(5)     R6        2
    C7(5)     R7        17
    C8(4)     OBJ       7
    C8(4)     R0        -5
    C8(4)     R1        8
    C8(4)     R6        19
    C8(4)     R8        -1
    C9(9)     OBJ       9
    C9(9)     R0        6
    C9(9)     R1        -2
    C9(9)     R2        9
    C9(9)     R4        19
    C9(9)     R5        5
    C9(9)     R6        -1
    C9(9)     R7        2
    C9(9)     R8        16
    C9(9)     R9        6
    C10(1)    R2        1
    C11(1)    R3        1
    C12(1)    R4        1
    C13(1)    R5        1
    C14(1)    R6        1
    C15(1)    R7        1
    C16(1)    R8        1
    C17(1)    R9        1
    C18(1)    R10       1
    C19(1)    R11       1
RHS
    RHS1      R0        131.625
    RHS1      R1        255.625
    RHS1      R2        54
    RHS1      R3        65
    RHS1      R4        85
    RHS1      R5        87
    RHS1      R6        75
    RHS1      R7        52
    RHS1      R8        90
    RHS1      R9        54
    RHS1      R10       94
    RHS1      R11       2
BOUNDS
 UP BND1      I0(6)     2
 UP BND1      I1(6)     2
 UP BND1      I2(9)     2
 UP BND1      I3(3)     2
 UP BND1      I4(6)     2
 UP BND1      I5(6)     2
ENDATA
